p cnf 40 969
1 2 3 4 5 6 7 8 9 0
1 2 3 4 5 6 7 8 10 0
1 2 3 4 5 6 7 9 10 0
1 2 3 4 5 6 8 9 10 0
1 2 3 4 5 7 8 9 10 0
1 2 3 4 6 7 8 9 10 0
1 2 3 5 6 7 8 9 10 0
1 2 4 5 6 7 8 9 10 0
1 3 4 5 6 7 8 9 10 0
2 3 4 5 6 7 8 9 10 0
-1 -2 -3 -4 0
-1 -2 -3 -5 0
-1 -2 -3 -6 0
-1 -2 -3 -7 0
-1 -2 -3 -8 0
-1 -2 -3 -9 0
-1 -2 -3 -10 0
-1 -2 -4 -5 0
-1 -2 -4 -6 0
-1 -2 -4 -7 0
-1 -2 -4 -8 0
-1 -2 -4 -9 0
-1 -2 -4 -10 0
-1 -2 -5 -6 0
-1 -2 -5 -7 0
-1 -2 -5 -8 0
-1 -2 -5 -9 0
-1 -2 -5 -10 0
-1 -2 -6 -7 0
-1 -2 -6 -8 0
-1 -2 -6 -9 0
-1 -2 -6 -10 0
-1 -2 -7 -8 0
-1 -2 -7 -9 0
-1 -2 -7 -10 0
-1 -2 -8 -9 0
-1 -2 -8 -10 0
-1 -2 -9 -10 0
-1 -3 -4 -5 0
-1 -3 -4 -6 0
-1 -3 -4 -7 0
-1 -3 -4 -8 0
-1 -3 -4 -9 0
-1 -3 -4 -10 0
-1 -3 -5 -6 0
-1 -3 -5 -7 0
-1 -3 -5 -8 0
-1 -3 -5 -9 0
-1 -3 -5 -10 0
-1 -3 -6 -7 0
-1 -3 -6 -8 0
-1 -3 -6 -9 0
-1 -3 -6 -10 0
-1 -3 -7 -8 0
-1 -3 -7 -9 0
-1 -3 -7 -10 0
-1 -3 -8 -9 0
-1 -3 -8 -10 0
-1 -3 -9 -10 0
-1 -4 -5 -6 0
-1 -4 -5 -7 0
-1 -4 -5 -8 0
-1 -4 -5 -9 0
-1 -4 -5 -10 0
-1 -4 -6 -7 0
-1 -4 -6 -8 0
-1 -4 -6 -9 0
-1 -4 -6 -10 0
-1 -4 -7 -8 0
-1 -4 -7 -9 0
-1 -4 -7 -10 0
-1 -4 -8 -9 0
-1 -4 -8 -10 0
-1 -4 -9 -10 0
-1 -5 -6 -7 0
-1 -5 -6 -8 0
-1 -5 -6 -9 0
-1 -5 -6 -10 0
-1 -5 -7 -8 0
-1 -5 -7 -9 0
-1 -5 -7 -10 0
-1 -5 -8 -9 0
-1 -5 -8 -10 0
-1 -5 -9 -10 0
-1 -6 -7 -8 0
-1 -6 -7 -9 0
-1 -6 -7 -10 0
-1 -6 -8 -9 0
-1 -6 -8 -10 0
-1 -6 -9 -10 0
-1 -7 -8 -9 0
-1 -7 -8 -10 0
-1 -7 -9 -10 0
-1 -8 -9 -10 0
-2 -3 -4 -5 0
-2 -3 -4 -6 0
-2 -3 -4 -7 0
-2 -3 -4 -8 0
-2 -3 -4 -9 0
-2 -3 -4 -10 0
-2 -3 -5 -6 0
-2 -3 -5 -7 0
-2 -3 -5 -8 0
-2 -3 -5 -9 0
-2 -3 -5 -10 0
-2 -3 -6 -7 0
-2 -3 -6 -8 0
-2 -3 -6 -9 0
-2 -3 -6 -10 0
-2 -3 -7 -8 0
-2 -3 -7 -9 0
-2 -3 -7 -10 0
-2 -3 -8 -9 0
-2 -3 -8 -10 0
-2 -3 -9 -10 0
-2 -4 -5 -6 0
-2 -4 -5 -7 0
-2 -4 -5 -8 0
-2 -4 -5 -9 0
-2 -4 -5 -10 0
-2 -4 -6 -7 0
-2 -4 -6 -8 0
-2 -4 -6 -9 0
-2 -4 -6 -10 0
-2 -4 -7 -8 0
-2 -4 -7 -9 0
-2 -4 -7 -10 0
-2 -4 -8 -9 0
-2 -4 -8 -10 0
-2 -4 -9 -10 0
-2 -5 -6 -7 0
-2 -5 -6 -8 0
-2 -5 -6 -9 0
-2 -5 -6 -10 0
-2 -5 -7 -8 0
-2 -5 -7 -9 0
-2 -5 -7 -10 0
-2 -5 -8 -9 0
-2 -5 -8 -10 0
-2 -5 -9 -10 0
-2 -6 -7 -8 0
-2 -6 -7 -9 0
-2 -6 -7 -10 0
-2 -6 -8 -9 0
-2 -6 -8 -10 0
-2 -6 -9 -10 0
-2 -7 -8 -9 0
-2 -7 -8 -10 0
-2 -7 -9 -10 0
-2 -8 -9 -10 0
-3 -4 -5 -6 0
-3 -4 -5 -7 0
-3 -4 -5 -8 0
-3 -4 -5 -9 0
-3 -4 -5 -10 0
-3 -4 -6 -7 0
-3 -4 -6 -8 0
-3 -4 -6 -9 0
-3 -4 -6 -10 0
-3 -4 -7 -8 0
-3 -4 -7 -9 0
-3 -4 -7 -10 0
-3 -4 -8 -9 0
-3 -4 -8 -10 0
-3 -4 -9 -10 0
-3 -5 -6 -7 0
-3 -5 -6 -8 0
-3 -5 -6 -9 0
-3 -5 -6 -10 0
-3 -5 -7 -8 0
-3 -5 -7 -9 0
-3 -5 -7 -10 0
-3 -5 -8 -9 0
-3 -5 -8 -10 0
-3 -5 -9 -10 0
-3 -6 -7 -8 0
-3 -6 -7 -9 0
-3 -6 -7 -10 0
-3 -6 -8 -9 0
-3 -6 -8 -10 0
-3 -6 -9 -10 0
-3 -7 -8 -9 0
-3 -7 -8 -10 0
-3 -7 -9 -10 0
-3 -8 -9 -10 0
-4 -5 -6 -7 0
-4 -5 -6 -8 0
-4 -5 -6 -9 0
-4 -5 -6 -10 0
-4 -5 -7 -8 0
-4 -5 -7 -9 0
-4 -5 -7 -10 0
-4 -5 -8 -9 0
-4 -5 -8 -10 0
-4 -5 -9 -10 0
-4 -6 -7 -8 0
-4 -6 -7 -9 0
-4 -6 -7 -10 0
-4 -6 -8 -9 0
-4 -6 -8 -10 0
-4 -6 -9 -10 0
-4 -7 -8 -9 0
-4 -7 -8 -10 0
-4 -7 -9 -10 0
-4 -8 -9 -10 0
-5 -6 -7 -8 0
-5 -6 -7 -9 0
-5 -6 -7 -10 0
-5 -6 -8 -9 0
-5 -6 -8 -10 0
-5 -6 -9 -10 0
-5 -7 -8 -9 0
-5 -7 -8 -10 0
-5 -7 -9 -10 0
-5 -8 -9 -10 0
-6 -7 -8 -9 0
-6 -7 -8 -10 0
-6 -7 -9 -10 0
-6 -8 -9 -10 0
-7 -8 -9 -10 0
11 12 13 14 15 16 17 18 19 0
11 12 13 14 15 16 17 18 20 0
11 12 13 14 15 16 17 19 20 0
11 12 13 14 15 16 18 19 20 0
11 12 13 14 15 17 18 19 20 0
11 12 13 14 16 17 18 19 20 0
11 12 13 15 16 17 18 19 20 0
11 12 14 15 16 17 18 19 20 0
11 13 14 15 16 17 18 19 20 0
12 13 14 15 16 17 18 19 20 0
-11 -12 -13 -14 0
-11 -12 -13 -15 0
-11 -12 -13 -16 0
-11 -12 -13 -17 0
-11 -12 -13 -18 0
-11 -12 -13 -19 0
-11 -12 -13 -20 0
-11 -12 -14 -15 0
-11 -12 -14 -16 0
-11 -12 -14 -17 0
-11 -12 -14 -18 0
-11 -12 -14 -19 0
-11 -12 -14 -20 0
-11 -12 -15 -16 0
-11 -12 -15 -17 0
-11 -12 -15 -18 0
-11 -12 -15 -19 0
-11 -12 -15 -20 0
-11 -12 -16 -17 0
-11 -12 -16 -18 0
-11 -12 -16 -19 0
-11 -12 -16 -20 0
-11 -12 -17 -18 0
-11 -12 -17 -19 0
-11 -12 -17 -20 0
-11 -12 -18 -19 0
-11 -12 -18 -20 0
-11 -12 -19 -20 0
-11 -13 -14 -15 0
-11 -13 -14 -16 0
-11 -13 -14 -17 0
-11 -13 -14 -18 0
-11 -13 -14 -19 0
-11 -13 -14 -20 0
-11 -13 -15 -16 0
-11 -13 -15 -17 0
-11 -13 -15 -18 0
-11 -13 -15 -19 0
-11 -13 -15 -20 0
-11 -13 -16 -17 0
-11 -13 -16 -18 0
-11 -13 -16 -19 0
-11 -13 -16 -20 0
-11 -13 -17 -18 0
-11 -13 -17 -19 0
-11 -13 -17 -20 0
-11 -13 -18 -19 0
-11 -13 -18 -20 0
-11 -13 -19 -20 0
-11 -14 -15 -16 0
-11 -14 -15 -17 0
-11 -14 -15 -18 0
-11 -14 -15 -19 0
-11 -14 -15 -20 0
-11 -14 -16 -17 0
-11 -14 -16 -18 0
-11 -14 -16 -19 0
-11 -14 -16 -20 0
-11 -14 -17 -18 0
-11 -14 -17 -19 0
-11 -14 -17 -20 0
-11 -14 -18 -19 0
-11 -14 -18 -20 0
-11 -14 -19 -20 0
-11 -15 -16 -17 0
-11 -15 -16 -18 0
-11 -15 -16 -19 0
-11 -15 -16 -20 0
-11 -15 -17 -18 0
-11 -15 -17 -19 0
-11 -15 -17 -20 0
-11 -15 -18 -19 0
-11 -15 -18 -20 0
-11 -15 -19 -20 0
-11 -16 -17 -18 0
-11 -16 -17 -19 0
-11 -16 -17 -20 0
-11 -16 -18 -19 0
-11 -16 -18 -20 0
-11 -16 -19 -20 0
-11 -17 -18 -19 0
-11 -17 -18 -20 0
-11 -17 -19 -20 0
-11 -18 -19 -20 0
-12 -13 -14 -15 0
-12 -13 -14 -16 0
-12 -13 -14 -17 0
-12 -13 -14 -18 0
-12 -13 -14 -19 0
-12 -13 -14 -20 0
-12 -13 -15 -16 0
-12 -13 -15 -17 0
-12 -13 -15 -18 0
-12 -13 -15 -19 0
-12 -13 -15 -20 0
-12 -13 -16 -17 0
-12 -13 -16 -18 0
-12 -13 -16 -19 0
-12 -13 -16 -20 0
-12 -13 -17 -18 0
-12 -13 -17 -19 0
-12 -13 -17 -20 0
-12 -13 -18 -19 0
-12 -13 -18 -20 0
-12 -13 -19 -20 0
-12 -14 -15 -16 0
-12 -14 -15 -17 0
-12 -14 -15 -18 0
-12 -14 -15 -19 0
-12 -14 -15 -20 0
-12 -14 -16 -17 0
-12 -14 -16 -18 0
-12 -14 -16 -19 0
-12 -14 -16 -20 0
-12 -14 -17 -18 0
-12 -14 -17 -19 0
-12 -14 -17 -20 0
-12 -14 -18 -19 0
-12 -14 -18 -20 0
-12 -14 -19 -20 0
-12 -15 -16 -17 0
-12 -15 -16 -18 0
-12 -15 -16 -19 0
-12 -15 -16 -20 0
-12 -15 -17 -18 0
-12 -15 -17 -19 0
-12 -15 -17 -20 0
-12 -15 -18 -19 0
-12 -15 -18 -20 0
-12 -15 -19 -20 0
-12 -16 -17 -18 0
-12 -16 -17 -19 0
-12 -16 -17 -20 0
-12 -16 -18 -19 0
-12 -16 -18 -20 0
-12 -16 -19 -20 0
-12 -17 -18 -19 0
-12 -17 -18 -20 0
-12 -17 -19 -20 0
-12 -18 -19 -20 0
-13 -14 -15 -16 0
-13 -14 -15 -17 0
-13 -14 -15 -18 0
-13 -14 -15 -19 0
-13 -14 -15 -20 0
-13 -14 -16 -17 0
-13 -14 -16 -18 0
-13 -14 -16 -19 0
-13 -14 -16 -20 0
-13 -14 -17 -18 0
-13 -14 -17 -19 0
-13 -14 -17 -20 0
-13 -14 -18 -19 0
-13 -14 -18 -20 0
-13 -14 -19 -20 0
-13 -15 -16 -17 0
-13 -15 -16 -18 0
-13 -15 -16 -19 0
-13 -15 -16 -20 0
-13 -15 -17 -18 0
-13 -15 -17 -19 0
-13 -15 -17 -20 0
-13 -15 -18 -19 0
-13 -15 -18 -20 0
-13 -15 -19 -20 0
-13 -16 -17 -18 0
-13 -16 -17 -19 0
-13 -16 -17 -20 0
-13 -16 -18 -19 0
-13 -16 -18 -20 0
-13 -16 -19 -20 0
-13 -17 -18 -19 0
-13 -17 -18 -20 0
-13 -17 -19 -20 0
-13 -18 -19 -20 0
-14 -15 -16 -17 0
-14 -15 -16 -18 0
-14 -15 -16 -19 0
-14 -15 -16 -20 0
-14 -15 -17 -18 0
-14 -15 -17 -19 0
-14 -15 -17 -20 0
-14 -15 -18 -19 0
-14 -15 -18 -20 0
-14 -15 -19 -20 0
-14 -16 -17 -18 0
-14 -16 -17 -19 0
-14 -16 -17 -20 0
-14 -16 -18 -19 0
-14 -16 -18 -20 0
-14 -16 -19 -20 0
-14 -17 -18 -19 0
-14 -17 -18 -20 0
-14 -17 -19 -20 0
-14 -18 -19 -20 0
-15 -16 -17 -18 0
-15 -16 -17 -19 0
-15 -16 -17 -20 0
-15 -16 -18 -19 0
-15 -16 -18 -20 0
-15 -16 -19 -20 0
-15 -17 -18 -19 0
-15 -17 -18 -20 0
-15 -17 -19 -20 0
-15 -18 -19 -20 0
-16 -17 -18 -19 0
-16 -17 -18 -20 0
-16 -17 -19 -20 0
-16 -18 -19 -20 0
-17 -18 -19 -20 0
21 22 23 24 25 26 27 28 29 0
21 22 23 24 25 26 27 28 30 0
21 22 23 24 25 26 27 29 30 0
21 22 23 24 25 26 28 29 30 0
21 22 23 24 25 27 28 29 30 0
21 22 23 24 26 27 28 29 30 0
21 22 23 25 26 27 28 29 30 0
21 22 24 25 26 27 28 29 30 0
21 23 24 25 26 27 28 29 30 0
22 23 24 25 26 27 28 29 30 0
-21 -22 -23 -24 0
-21 -22 -23 -25 0
-21 -22 -23 -26 0
-21 -22 -23 -27 0
-21 -22 -23 -28 0
-21 -22 -23 -29 0
-21 -22 -23 -30 0
-21 -22 -24 -25 0
-21 -22 -24 -26 0
-21 -22 -24 -27 0
-21 -22 -24 -28 0
-21 -22 -24 -29 0
-21 -22 -24 -30 0
-21 -22 -25 -26 0
-21 -22 -25 -27 0
-21 -22 -25 -28 0
-21 -22 -25 -29 0
-21 -22 -25 -30 0
-21 -22 -26 -27 0
-21 -22 -26 -28 0
-21 -22 -26 -29 0
-21 -22 -26 -30 0
-21 -22 -27 -28 0
-21 -22 -27 -29 0
-21 -22 -27 -30 0
-21 -22 -28 -29 0
-21 -22 -28 -30 0
-21 -22 -29 -30 0
-21 -23 -24 -25 0
-21 -23 -24 -26 0
-21 -23 -24 -27 0
-21 -23 -24 -28 0
-21 -23 -24 -29 0
-21 -23 -24 -30 0
-21 -23 -25 -26 0
-21 -23 -25 -27 0
-21 -23 -25 -28 0
-21 -23 -25 -29 0
-21 -23 -25 -30 0
-21 -23 -26 -27 0
-21 -23 -26 -28 0
-21 -23 -26 -29 0
-21 -23 -26 -30 0
-21 -23 -27 -28 0
-21 -23 -27 -29 0
-21 -23 -27 -30 0
-21 -23 -28 -29 0
-21 -23 -28 -30 0
-21 -23 -29 -30 0
-21 -24 -25 -26 0
-21 -24 -25 -27 0
-21 -24 -25 -28 0
-21 -24 -25 -29 0
-21 -24 -25 -30 0
-21 -24 -26 -27 0
-21 -24 -26 -28 0
-21 -24 -26 -29 0
-21 -24 -26 -30 0
-21 -24 -27 -28 0
-21 -24 -27 -29 0
-21 -24 -27 -30 0
-21 -24 -28 -29 0
-21 -24 -28 -30 0
-21 -24 -29 -30 0
-21 -25 -26 -27 0
-21 -25 -26 -28 0
-21 -25 -26 -29 0
-21 -25 -26 -30 0
-21 -25 -27 -28 0
-21 -25 -27 -29 0
-21 -25 -27 -30 0
-21 -25 -28 -29 0
-21 -25 -28 -30 0
-21 -25 -29 -30 0
-21 -26 -27 -28 0
-21 -26 -27 -29 0
-21 -26 -27 -30 0
-21 -26 -28 -29 0
-21 -26 -28 -30 0
-21 -26 -29 -30 0
-21 -27 -28 -29 0
-21 -27 -28 -30 0
-21 -27 -29 -30 0
-21 -28 -29 -30 0
-22 -23 -24 -25 0
-22 -23 -24 -26 0
-22 -23 -24 -27 0
-22 -23 -24 -28 0
-22 -23 -24 -29 0
-22 -23 -24 -30 0
-22 -23 -25 -26 0
-22 -23 -25 -27 0
-22 -23 -25 -28 0
-22 -23 -25 -29 0
-22 -23 -25 -30 0
-22 -23 -26 -27 0
-22 -23 -26 -28 0
-22 -23 -26 -29 0
-22 -23 -26 -30 0
-22 -23 -27 -28 0
-22 -23 -27 -29 0
-22 -23 -27 -30 0
-22 -23 -28 -29 0
-22 -23 -28 -30 0
-22 -23 -29 -30 0
-22 -24 -25 -26 0
-22 -24 -25 -27 0
-22 -24 -25 -28 0
-22 -24 -25 -29 0
-22 -24 -25 -30 0
-22 -24 -26 -27 0
-22 -24 -26 -28 0
-22 -24 -26 -29 0
-22 -24 -26 -30 0
-22 -24 -27 -28 0
-22 -24 -27 -29 0
-22 -24 -27 -30 0
-22 -24 -28 -29 0
-22 -24 -28 -30 0
-22 -24 -29 -30 0
-22 -25 -26 -27 0
-22 -25 -26 -28 0
-22 -25 -26 -29 0
-22 -25 -26 -30 0
-22 -25 -27 -28 0
-22 -25 -27 -29 0
-22 -25 -27 -30 0
-22 -25 -28 -29 0
-22 -25 -28 -30 0
-22 -25 -29 -30 0
-22 -26 -27 -28 0
-22 -26 -27 -29 0
-22 -26 -27 -30 0
-22 -26 -28 -29 0
-22 -26 -28 -30 0
-22 -26 -29 -30 0
-22 -27 -28 -29 0
-22 -27 -28 -30 0
-22 -27 -29 -30 0
-22 -28 -29 -30 0
-23 -24 -25 -26 0
-23 -24 -25 -27 0
-23 -24 -25 -28 0
-23 -24 -25 -29 0
-23 -24 -25 -30 0
-23 -24 -26 -27 0
-23 -24 -26 -28 0
-23 -24 -26 -29 0
-23 -24 -26 -30 0
-23 -24 -27 -28 0
-23 -24 -27 -29 0
-23 -24 -27 -30 0
-23 -24 -28 -29 0
-23 -24 -28 -30 0
-23 -24 -29 -30 0
-23 -25 -26 -27 0
-23 -25 -26 -28 0
-23 -25 -26 -29 0
-23 -25 -26 -30 0
-23 -25 -27 -28 0
-23 -25 -27 -29 0
-23 -25 -27 -30 0
-23 -25 -28 -29 0
-23 -25 -28 -30 0
-23 -25 -29 -30 0
-23 -26 -27 -28 0
-23 -26 -27 -29 0
-23 -26 -27 -30 0
-23 -26 -28 -29 0
-23 -26 -28 -30 0
-23 -26 -29 -30 0
-23 -27 -28 -29 0
-23 -27 -28 -30 0
-23 -27 -29 -30 0
-23 -28 -29 -30 0
-24 -25 -26 -27 0
-24 -25 -26 -28 0
-24 -25 -26 -29 0
-24 -25 -26 -30 0
-24 -25 -27 -28 0
-24 -25 -27 -29 0
-24 -25 -27 -30 0
-24 -25 -28 -29 0
-24 -25 -28 -30 0
-24 -25 -29 -30 0
-24 -26 -27 -28 0
-24 -26 -27 -29 0
-24 -26 -27 -30 0
-24 -26 -28 -29 0
-24 -26 -28 -30 0
-24 -26 -29 -30 0
-24 -27 -28 -29 0
-24 -27 -28 -30 0
-24 -27 -29 -30 0
-24 -28 -29 -30 0
-25 -26 -27 -28 0
-25 -26 -27 -29 0
-25 -26 -27 -30 0
-25 -26 -28 -29 0
-25 -26 -28 -30 0
-25 -26 -29 -30 0
-25 -27 -28 -29 0
-25 -27 -28 -30 0
-25 -27 -29 -30 0
-25 -28 -29 -30 0
-26 -27 -28 -29 0
-26 -27 -28 -30 0
-26 -27 -29 -30 0
-26 -28 -29 -30 0
-27 -28 -29 -30 0
31 32 33 34 35 36 37 38 39 0
31 32 33 34 35 36 37 38 40 0
31 32 33 34 35 36 37 39 40 0
31 32 33 34 35 36 38 39 40 0
31 32 33 34 35 37 38 39 40 0
31 32 33 34 36 37 38 39 40 0
31 32 33 35 36 37 38 39 40 0
31 32 34 35 36 37 38 39 40 0
31 33 34 35 36 37 38 39 40 0
32 33 34 35 36 37 38 39 40 0
-31 -32 -33 -34 0
-31 -32 -33 -35 0
-31 -32 -33 -36 0
-31 -32 -33 -37 0
-31 -32 -33 -38 0
-31 -32 -33 -39 0
-31 -32 -33 -40 0
-31 -32 -34 -35 0
-31 -32 -34 -36 0
-31 -32 -34 -37 0
-31 -32 -34 -38 0
-31 -32 -34 -39 0
-31 -32 -34 -40 0
-31 -32 -35 -36 0
-31 -32 -35 -37 0
-31 -32 -35 -38 0
-31 -32 -35 -39 0
-31 -32 -35 -40 0
-31 -32 -36 -37 0
-31 -32 -36 -38 0
-31 -32 -36 -39 0
-31 -32 -36 -40 0
-31 -32 -37 -38 0
-31 -32 -37 -39 0
-31 -32 -37 -40 0
-31 -32 -38 -39 0
-31 -32 -38 -40 0
-31 -32 -39 -40 0
-31 -33 -34 -35 0
-31 -33 -34 -36 0
-31 -33 -34 -37 0
-31 -33 -34 -38 0
-31 -33 -34 -39 0
-31 -33 -34 -40 0
-31 -33 -35 -36 0
-31 -33 -35 -37 0
-31 -33 -35 -38 0
-31 -33 -35 -39 0
-31 -33 -35 -40 0
-31 -33 -36 -37 0
-31 -33 -36 -38 0
-31 -33 -36 -39 0
-31 -33 -36 -40 0
-31 -33 -37 -38 0
-31 -33 -37 -39 0
-31 -33 -37 -40 0
-31 -33 -38 -39 0
-31 -33 -38 -40 0
-31 -33 -39 -40 0
-31 -34 -35 -36 0
-31 -34 -35 -37 0
-31 -34 -35 -38 0
-31 -34 -35 -39 0
-31 -34 -35 -40 0
-31 -34 -36 -37 0
-31 -34 -36 -38 0
-31 -34 -36 -39 0
-31 -34 -36 -40 0
-31 -34 -37 -38 0
-31 -34 -37 -39 0
-31 -34 -37 -40 0
-31 -34 -38 -39 0
-31 -34 -38 -40 0
-31 -34 -39 -40 0
-31 -35 -36 -37 0
-31 -35 -36 -38 0
-31 -35 -36 -39 0
-31 -35 -36 -40 0
-31 -35 -37 -38 0
-31 -35 -37 -39 0
-31 -35 -37 -40 0
-31 -35 -38 -39 0
-31 -35 -38 -40 0
-31 -35 -39 -40 0
-31 -36 -37 -38 0
-31 -36 -37 -39 0
-31 -36 -37 -40 0
-31 -36 -38 -39 0
-31 -36 -38 -40 0
-31 -36 -39 -40 0
-31 -37 -38 -39 0
-31 -37 -38 -40 0
-31 -37 -39 -40 0
-31 -38 -39 -40 0
-32 -33 -34 -35 0
-32 -33 -34 -36 0
-32 -33 -34 -37 0
-32 -33 -34 -38 0
-32 -33 -34 -39 0
-32 -33 -34 -40 0
-32 -33 -35 -36 0
-32 -33 -35 -37 0
-32 -33 -35 -38 0
-32 -33 -35 -39 0
-32 -33 -35 -40 0
-32 -33 -36 -37 0
-32 -33 -36 -38 0
-32 -33 -36 -39 0
-32 -33 -36 -40 0
-32 -33 -37 -38 0
-32 -33 -37 -39 0
-32 -33 -37 -40 0
-32 -33 -38 -39 0
-32 -33 -38 -40 0
-32 -33 -39 -40 0
-32 -34 -35 -36 0
-32 -34 -35 -37 0
-32 -34 -35 -38 0
-32 -34 -35 -39 0
-32 -34 -35 -40 0
-32 -34 -36 -37 0
-32 -34 -36 -38 0
-32 -34 -36 -39 0
-32 -34 -36 -40 0
-32 -34 -37 -38 0
-32 -34 -37 -39 0
-32 -34 -37 -40 0
-32 -34 -38 -39 0
-32 -34 -38 -40 0
-32 -34 -39 -40 0
-32 -35 -36 -37 0
-32 -35 -36 -38 0
-32 -35 -36 -39 0
-32 -35 -36 -40 0
-32 -35 -37 -38 0
-32 -35 -37 -39 0
-32 -35 -37 -40 0
-32 -35 -38 -39 0
-32 -35 -38 -40 0
-32 -35 -39 -40 0
-32 -36 -37 -38 0
-32 -36 -37 -39 0
-32 -36 -37 -40 0
-32 -36 -38 -39 0
-32 -36 -38 -40 0
-32 -36 -39 -40 0
-32 -37 -38 -39 0
-32 -37 -38 -40 0
-32 -37 -39 -40 0
-32 -38 -39 -40 0
-33 -34 -35 -36 0
-33 -34 -35 -37 0
-33 -34 -35 -38 0
-33 -34 -35 -39 0
-33 -34 -35 -40 0
-33 -34 -36 -37 0
-33 -34 -36 -38 0
-33 -34 -36 -39 0
-33 -34 -36 -40 0
-33 -34 -37 -38 0
-33 -34 -37 -39 0
-33 -34 -37 -40 0
-33 -34 -38 -39 0
-33 -34 -38 -40 0
-33 -34 -39 -40 0
-33 -35 -36 -37 0
-33 -35 -36 -38 0
-33 -35 -36 -39 0
-33 -35 -36 -40 0
-33 -35 -37 -38 0
-33 -35 -37 -39 0
-33 -35 -37 -40 0
-33 -35 -38 -39 0
-33 -35 -38 -40 0
-33 -35 -39 -40 0
-33 -36 -37 -38 0
-33 -36 -37 -39 0
-33 -36 -37 -40 0
-33 -36 -38 -39 0
-33 -36 -38 -40 0
-33 -36 -39 -40 0
-33 -37 -38 -39 0
-33 -37 -38 -40 0
-33 -37 -39 -40 0
-33 -38 -39 -40 0
-34 -35 -36 -37 0
-34 -35 -36 -38 0
-34 -35 -36 -39 0
-34 -35 -36 -40 0
-34 -35 -37 -38 0
-34 -35 -37 -39 0
-34 -35 -37 -40 0
-34 -35 -38 -39 0
-34 -35 -38 -40 0
-34 -35 -39 -40 0
-34 -36 -37 -38 0
-34 -36 -37 -39 0
-34 -36 -37 -40 0
-34 -36 -38 -39 0
-34 -36 -38 -40 0
-34 -36 -39 -40 0
-34 -37 -38 -39 0
-34 -37 -38 -40 0
-34 -37 -39 -40 0
-34 -38 -39 -40 0
-35 -36 -37 -38 0
-35 -36 -37 -39 0
-35 -36 -37 -40 0
-35 -36 -38 -39 0
-35 -36 -38 -40 0
-35 -36 -39 -40 0
-35 -37 -38 -39 0
-35 -37 -38 -40 0
-35 -37 -39 -40 0
-35 -38 -39 -40 0
-36 -37 -38 -39 0
-36 -37 -38 -40 0
-36 -37 -39 -40 0
-36 -38 -39 -40 0
-37 -38 -39 -40 0
1 11 21 31 0
-1 -11 0
-1 -21 0
-1 -31 0
-11 -21 0
-11 -31 0
-21 -31 0
2 12 22 32 0
-2 -12 0
-2 -22 0
-2 -32 0
-12 -22 0
-12 -32 0
-22 -32 0
3 13 23 33 0
-3 -13 0
-3 -23 0
-3 -33 0
-13 -23 0
-13 -33 0
-23 -33 0
4 14 24 34 0
-4 -14 0
-4 -24 0
-4 -34 0
-14 -24 0
-14 -34 0
-24 -34 0
5 15 25 35 0
-5 -15 0
-5 -25 0
-5 -35 0
-15 -25 0
-15 -35 0
-25 -35 0
6 16 26 36 0
-6 -16 0
-6 -26 0
-6 -36 0
-16 -26 0
-16 -36 0
-26 -36 0
7 17 27 37 0
-7 -17 0
-7 -27 0
-7 -37 0
-17 -27 0
-17 -37 0
-27 -37 0
8 18 28 38 0
-8 -18 0
-8 -28 0
-8 -38 0
-18 -28 0
-18 -38 0
-28 -38 0
9 19 29 39 0
-9 -19 0
-9 -29 0
-9 -39 0
-19 -29 0
-19 -39 0
-29 -39 0
10 20 30 40 0
-10 -20 0
-10 -30 0
-10 -40 0
-20 -30 0
-20 -40 0
-30 -40 0
-1 -2 0
-3 -4 0
-5 -6 0
-1 -3 0
-11 -13 0
-21 -23 0
-31 -33 0
-2 -6 0
-12 -16 0
-22 -26 0
-32 -36 0
-4 -5 0
-14 -15 0
-24 -25 0
-34 -35 0
-8 -9 0
-18 -19 0
-28 -29 0
-38 -39 0
